4,1,13,1,7,1,6,1,14,1,8,1,1,1,5,1,2,1,9,1,10,1,12,1,3,1,11,1;4,2,13,2,7,2,6,2,14,2,8,2,1,2,2,2,10,2,12,2,9,2,3,2,11,2,5,2;4,3,7,3,13,3,14,3,6,3,8,3,1,3,2,3,12,3,10,3,9,3,3,3,11,3,5,3;4,4,7,4,13,4,14,4,6,4,8,4,2,4,1,4,12,4,10,4,9,4,11,4,3,4,5,4;
